Minimize
	3 x1 + 2 x2 + 3 x3 + 19 x4 + 15 x5
Subject To
Calories: 150 x1 + 120 x2 + 160 x3 + 230 x4 + 450 x5 >= 2000
Proteins: 4 x1 + 8 x2 + 15 x3 + 14 x4 + 4 x5 >= 50
Calcium: 2 x1 + 285 x2 + 54 x3 + 80 x4 + 22 x5 >= 700
Bounds
x1 <= 4
x2 <= 7
x3 <= 2
x4 <= 3
x5 <= 2
Semi-continuous
x1 x2 x3 x4 x5
End
